25 500
  0     40.0     50.0       0.0      960.0      0.0       0.0       0.0  
  1     25.0     85.0      613.0     853.0     10.0       1.0      20.0  
  2     22.0     75.0      92.0      332.0     10.0       9.0      30.0  
  3     22.0     85.0      411.0     651.0     10.0       6.0      10.0  
  4     20.0     80.0      584.0     824.0     10.0      30.0      40.0  
  5     20.0     85.0      40.0      280.0     10.0       6.0      20.0  
  6     18.0     75.0      328.0     568.0     10.0      17.0      20.0  
  7     15.0     75.0      240.0     480.0     10.0      16.0      20.0  
  8     15.0     80.0      307.0     547.0     10.0       7.0      10.0  
  9     10.0     35.0      311.0     551.0     10.0      11.0      20.0  
 10     10.0     40.0      459.0     699.0     10.0      28.0      30.0  
 11      8.0     40.0      135.0     375.0     10.0      10.0      40.0  
 12      8.0     45.0      163.0     403.0     10.0      15.0      20.0  
 13      5.0     35.0      593.0     833.0     10.0       4.0      10.0  
 14      5.0     45.0      35.0      275.0     10.0       0.0      10.0  
 15      2.0     40.0      114.0     354.0     10.0       6.0      20.0  
 16      0.0     40.0      195.0     435.0     10.0      18.0      20.0  
 17      0.0     45.0      643.0     883.0     10.0      19.0      20.0  
 18     44.0      5.0      275.0     515.0     10.0       0.0      20.0  
 19     42.0     10.0      194.0     434.0     10.0      29.0      40.0  
 20     42.0     15.0      477.0     717.0     10.0       9.0      10.0  
 21     40.0      5.0      155.0     395.0     10.0       4.0      10.0  
 22     40.0     15.0      315.0     555.0     10.0      35.0      40.0  
 23     38.0      5.0      141.0     381.0     10.0      23.0      30.0  
 24     38.0     15.0      621.0     861.0     10.0       3.0      10.0  
 25     35.0      5.0      664.0     904.0     10.0      19.0      20.0  
